42 42
3 36
7 24
13 41
15 21
11 12
2 27
2 30
20 5
10 4
21 25
17 9
8 38
6 17
16 40
18 29
13 32
4 8
14 2
20 1
8 31
5 39
16 18
7 28
4 13
19 34
17 19
6 26
9 37
3 11
1 20
12 3
5 14
12 35
21 33
10 22
18 23
1 16
9 15
15 6
19 42
14 7
11 10
